186	32	4	72	
10	10	10	10

0	0	0	0	0	0	15	1	2	4	6	7	10	22	23	24	25	26	27	28	29	30
1	1	0	1	1	8	8	21	20	19	16	15	14	12	8
2	4	1	3	0	7	3	16	13	3
3	0	3	3	3	9	4	17	15	12	5
4	5	2	1	0	9	3	14	13	12
5	5	4	0	7	4	1	8
6	6	5	0	2	7	2	18	13
7	6	3	6	0	5	2	14	13
8	0	4	5	5	9	1	9
9	2	3	5	0	1	1	11
10	4	6	5	0	10	1	12
11	4	1	0	1	7	1	31
12	0	4	2	7	2	1	31
13	0	7	5	10	9	1	31
14	5	0	4	3	4	1	31
15	6	0	5	4	7	1	31
16	0	5	2	2	9	1	31
17	1	4	0	4	4	1	31
18	0	2	2	5	7	1	31
19	5	6	7	0	7	1	31
20	0	6	7	6	4	1	31
21	3	3	0	3	8	1	31
22	3	3	4	0	2	1	31
23	5	4	4	0	3	1	31
24	0	3	3	3	9	1	31
25	2	8	0	4	10	1	31
26	2	4	0	5	2	1	31
27	3	0	2	4	8	1	31
28	6	5	3	0	8	1	31
29	4	0	9	3	2	1	31
30	6	0	4	2	5	1	31
31	0	0	0	0	0	0
